     Program PWSCF v.6.4.1 starts on 10Nov2022 at 10:18:56

     Waiting for input...
     Reading input from standard input

     Current dimensions of program PWSCF are:
     Max number of different atomic species (ntypx) = 10
     Max number of k-points (npk) =  40000
     Max angular momentum in pseudopotentials (lmaxx) =  3
               file K.pbe-spn-kjpaw_psl.1.0.0.UPF: wavefunction(s)  3S renormalized
               file N.pbe-n-kjpaw_psl.1.0.0.UPF: wavefunction(s)  2S renormalized
               file O.pbe-n-kjpaw_psl.1.0.0.UPF: wavefunction(s)  2S 2P renormalized

     Subspace diagonalization in iterative solution of the eigenvalue problem:
     a serial algorithm will be used

     Found symmetry operation: I + ( -0.3333  0.3333  0.3333)
     This is a supercell, fractional translations are disabled

     bravais-lattice index     =            4
     lattice parameter (alat)  =      10.4730  a.u.
     unit-cell volume          =    1653.8288 (a.u.)^3
     number of atoms/cell      =           15
     number of atomic types    =            3
     number of electrons       =        96.00
     number of Kohn-Sham states=           58
     kinetic-energy cutoff     =      25.0000  Ry
     charge density cutoff     =     100.0000  Ry
     convergence threshold     =      1.0E-06
     mixing beta               =       0.7000
     number of iterations used =            8  plain     mixing
     Exchange-correlation      = SLA PW PBX PBC ( 1  4  3  4 0 0)

     celldm(1)=  10.472976  celldm(2)=   0.000000  celldm(3)=   1.662454
     celldm(4)=   0.000000  celldm(5)=   0.000000  celldm(6)=   0.000000

     crystal axes: (cart. coord. in units of alat)
               a(1) = (   1.000000   0.000000   0.000000 )
               a(2) = (  -0.500000   0.866025   0.000000 )
               a(3) = (   0.000000   0.000000   1.662454 )

     reciprocal axes: (cart. coord. in units 2 pi/alat)
               b(1) = (  1.000000  0.577350 -0.000000 )
               b(2) = (  0.000000  1.154701  0.000000 )
               b(3) = (  0.000000 -0.000000  0.601520 )

     PseudoPot. # 1 for K  read from file:
     /home/ABTLUS/mario.neto/.burai/.pseudopot/K.pbe-spn-kjpaw_psl.1.0.0.UPF
     MD5 check sum: 34cc42130a09071ebe376fd42eb21491
     Pseudo is Projector augmented-wave + core cor, Zval =  9.0
     Generated using "atomic" code by A. Dal Corso v.6.2.2
     Shape of augmentation charge: PSQ
     Using radial grid of 1165 points,  6 beta functions with:
                l(1) =   0
                l(2) =   0
                l(3) =   1
                l(4) =   1
                l(5) =   2
                l(6) =   2
     Q(r) pseudized with 0 coefficients

     PseudoPot. # 2 for N  read from file:
     /home/ABTLUS/mario.neto/.burai/.pseudopot/N.pbe-n-kjpaw_psl.1.0.0.UPF
     MD5 check sum: 14c48229446f9f2d411169a3abcbc3fa
     Pseudo is Projector augmented-wave + core cor, Zval =  5.0
     Generated using "atomic" code by A. Dal Corso v.6.3
     Shape of augmentation charge: PSQ
     Using radial grid of 1085 points,  4 beta functions with:
                l(1) =   0
                l(2) =   0
                l(3) =   1
                l(4) =   1
     Q(r) pseudized with 0 coefficients

     PseudoPot. # 3 for O  read from file:
     /home/ABTLUS/mario.neto/.burai/.pseudopot/O.pbe-n-kjpaw_psl.1.0.0.UPF
     MD5 check sum: e99d9cef9b487d1ca56f5b95ecd0fd7a
     Pseudo is Projector augmented-wave + core cor, Zval =  6.0
     Generated using "atomic" code by A. Dal Corso v.6.3
     Shape of augmentation charge: PSQ
     Using radial grid of 1095 points,  4 beta functions with:
                l(1) =   0
                l(2) =   0
                l(3) =   1
                l(4) =   1
     Q(r) pseudized with 0 coefficients

     atomic species   valence    mass     pseudopotential
        K              9.00    39.09830     K ( 1.00)
        N              5.00    14.00674     N ( 1.00)
        O              6.00    15.99940     O ( 1.00)

      6 Sym. Ops. (no inversion) found

   Cartesian axes

     site n.     atom                  positions (alat units)
         1           K   tau(   1) = (   0.0000000   0.0000000   1.6535059  )
         2           K   tau(   2) = (   0.5000005   0.2886748   0.5452032  )
         3           K   tau(   3) = (  -0.0000005   0.5773507   1.0993539  )
         4           N   tau(   4) = (   0.0000000   0.0000000   0.7246518  )
         5           N   tau(   5) = (   0.5000005   0.2886748   1.2788039  )
         6           N   tau(   6) = (  -0.0000005   0.5773507   0.1705012  )
         7           O   tau(   7) = (   0.6983816   0.1741396   1.2764815  )
         8           O   tau(   8) = (   0.5000005   0.5177456   1.2764815  )
         9           O   tau(   9) = (   0.3016196   0.1741396   1.2764815  )
        10           O   tau(  10) = (   0.1983806   0.4628153   0.1681788  )
        11           O   tau(  11) = (   0.0000000   0.8064204   0.1681788  )
        12           O   tau(  12) = (  -0.1983806   0.4628153   0.1681788  )
        13           O   tau(  13) = (  -0.3016191   0.7514902   0.7223292  )
        14           O   tau(  14) = (   0.0000000   0.2290706   0.7223292  )
        15           O   tau(  15) = (   0.3016191   0.7514902   0.7223292  )

     number of k points=     3  gaussian smearing, width (Ry)=  0.0100
                       cart. coord. in units 2pi/alat
        k(    1) = (   0.0000000   0.0000000   0.0000000), wk =   0.2222222
        k(    2) = (   0.0000000   0.3849002   0.0000000), wk =   1.3333333
        k(    3) = (   0.3333333   0.5773503   0.0000000), wk =   0.4444444

     Check: negative core charge=   -0.000389

     Initial potential from superposition of free atoms

     starting charge   95.94347, renormalised to   96.00000
     Starting wfcs are   72 randomized atomic wfcs
     Checking if some PAW data can be deallocated...

     Self-consistent Calculation

     iteration #  1     ecut=    25.00 Ry     beta= 0.70
     Davidson diagonalization with overlap
     ethr =  1.00E-02,  avg # of iterations =  6.3

     Threshold (ethr) on eigenvalues was too large:
     Diagonalizing with lowered threshold

     Davidson diagonalization with overlap
     ethr =  8.82E-04,  avg # of iterations =  3.7

     negative rho (up, down):  3.193E-04 0.000E+00

     total energy              =    -793.24816770 Ry
     Harris-Foulkes estimate   =    -793.68135383 Ry
     estimated scf accuracy    <       0.84914987 Ry

[...]

     total energy              =    -793.50006432 Ry
     Harris-Foulkes estimate   =    -793.50006470 Ry
     estimated scf accuracy    <       0.00000421 Ry

     iteration #  7     ecut=    25.00 Ry     beta= 0.70
     Davidson diagonalization with overlap
     ethr =  4.39E-09,  avg # of iterations =  2.3

     negative rho (up, down):  2.168E-03 0.000E+00

     End of self-consistent calculation

          k = 0.0000 0.0000 0.0000 (  3477 PWs)   bands (ev):

   -25.8532 -25.8349 -25.8348 -24.4125 -24.3999 -24.3993 -19.2404 -19.2404
   -19.2396 -19.2396 -19.2394 -19.2393  -9.6001  -9.6000  -9.3770  -9.3420
    -9.3420  -9.3419  -9.3419  -9.2749  -9.2749  -8.6003  -8.3059  -8.3059
    -5.7466  -5.7459  -5.6373  -5.6372  -5.6273  -5.4598  -5.4597  -5.4596
    -5.4596   0.0301   0.0301   0.0841   0.0841   0.0842   0.0842   0.3630
     0.3630   0.6281   0.6281   0.6282   0.6283   2.0800   2.4538   2.4540
     5.4568   5.4573   5.9105   6.3992   8.9352   8.9353   9.5692   9.5693
    10.1300  10.1301

[...]

          k = 0.3333 0.5774 0.0000 (  3474 PWs)   bands (ev):

   -25.8332 -25.8331 -25.8331 -24.4024 -24.4020 -24.4013 -19.2757 -19.2755
   -19.2753 -19.2338 -19.2336 -19.2334  -9.4212  -9.4212  -9.4211  -9.3839
    -9.3837  -9.3837  -9.2850  -9.2850  -9.2850  -8.2121  -8.2120  -8.2120
    -5.8087  -5.8085  -5.8085  -5.5907  -5.5903  -5.5896  -5.3844  -5.3842
    -5.3841  -0.2649  -0.2648  -0.2648   0.0707   0.0708   0.0709   0.3206
     0.3207   0.3208   0.5512   0.5513   0.5514   1.8165   1.8168   1.8168
     5.9723   5.9727   5.9732   8.7005   8.7006   8.7007  10.3677  10.3677
    10.3677  10.7391

     the Fermi energy is     4.0966 ev

!    total energy              =    -793.50006510 Ry
     Harris-Foulkes estimate   =    -793.50006526 Ry
     estimated scf accuracy    <       0.00000025 Ry

     total all-electron energy =     -5290.734603 Ry

     The total energy is the sum of the following terms:

     one-electron contribution =    -280.64052411 Ry
     hartree contribution      =     181.28003013 Ry
     xc contribution           =    -116.43663522 Ry
     ewald contribution        =    -301.56043233 Ry
     one-center paw contrib.   =    -276.14250357 Ry
     smearing contrib. (-TS)   =      -0.00000000 Ry

     convergence has been achieved in   7 iterations

     Writing output data file pwscf.save/

     General routines

     Parallel routines

   This run was terminated on:  10:19:15  10Nov2022

   JOB DONE.